CMD:
./solvers/bin/cadical --plain --no-reduce -t 1600 ./data/cnfs//zipcpu-zipmmu-p02/zipcpu-zipmmu-p02.75.cnf

c --- [ banner ] -------------------------------------------------------------
c 
c CaDiCaL SAT Solver
c Copyright (c) 2016-2024
c A. Biere, M. Fleury, N. Froleyks, K. Fazekas, F. Pollitt, T. Faller
c JKU Linz, University of Freiburg, TU Wien
c 
c Version 2.1.3 5296d3d2a9bf48c154ab2acb5e44625776d821bf
c g++ (Gentoo 12.3.1_p20230526 p2) 12.3.1 20230526 -Wall -Wextra -O3 -DNDEBUG
c Sat Aug 9 07:26:21 PDT 2025 Linux cedar2.int.cedar.computecanada.ca 5.14.0-362.24.2.el9_3.x86_64 x86_64
c 
c --- [ limit ] --------------------------------------------------------------
c 
c setting time limit to 1600 seconds real time (due to '-t 1600')
c 
c --- [ parsing input ] ------------------------------------------------------
c 
c reading DIMACS file from './data/cnfs//zipcpu-zipmmu-p02/zipcpu-zipmmu-p02.75.cnf'
c opening file to read './data/cnfs//zipcpu-zipmmu-p02/zipcpu-zipmmu-p02.75.cnf'
c found 'p cnf 360764 1057269' header
c parsed 1057269 clauses in 0.18 seconds process time
c 
c --- [ options ] ------------------------------------------------------------
c 
c   --compact=false                (different from default 'true')
c   --decompose=false              (different from default 'true')
c   --deduplicate=false            (different from default 'true')
c   --elim=false                   (different from default 'true')
c   --probe=false                  (different from default 'true')
c   --reduce=false                 (different from default 'true')
c   --subsume=false                (different from default 'true')
c   --ternary=false                (different from default 'true')
c   --transred=false               (different from default 'true')
c   --vivify=false                 (different from default 'true')
c 
c --- [ solving ] ------------------------------------------------------------
c 
c time measured in process time since initialization
c 
c  seconds   reductions  redundant   irredundant
c          MB    restarts       trail        variables
c           level   conflicts       glue           remaining
c 
c *  0.18 166  0 0   0    0    0  0% 0 1045163 353108 98%
c {  0.26 170  0 0   0    0    0  0% 0 1045163 353108 98%
c i  0.27 170 41 0   0    2    1  2% 0 1045163 353107 98%
c i  0.35 171 275 0  27  288  246  7% 3 1045163 353099 98%
c i  0.35 171 271 0  27  292  249  7% 3 1045163 353098 98%
c i  0.35 171 270 0  27  293  249  7% 3 1045163 353097 98%
c i  0.35 171 269 0  27  294  249  7% 3 1045163 353094 98%
c i  0.35 171 268 0  27  295  249  7% 3 1045163 353093 98%
c i  0.35 171 268 0  27  296  249  7% 3 1045163 353085 98%
c i  0.35 172 205 0  27  400  342  7% 3 1045163 353079 98%
c i  0.38 172 181 0  41  493  424  8% 3 1045163 353073 98%
c }  0.52 172 125 0 122 1000  880  8% 3 1045163 353071 98%
c [  0.52 172  0 0 122 1000  880  0% 0 1045163 353071 98%
c O  0.57 172 2122 0 122 1003  883 26% 1 1045163 353071 98%
c i  0.90 172 1221 0 123 2070 1893 15% 9 1045163 353058 98%
c i  0.90 172 1155 0 123 2131 1938 15% 9 1045163 353043 98%
c i  0.90 172 1154 0 123 2132 1938 15% 9 1045163 353034 98%
c i  0.91 172 1029 0 123 2269 2037 13% 9 1045163 353020 98%
c i  0.95 172 701 0 123 2863 2461 10% 9 1045163 353012 98%
c i  0.96 173 658 0 123 2993 2578 10% 9 1045163 353005 98%
c 
c  seconds    reductions  redundant   irredundant
c          MB     restarts       trail        variables
c            level   conflicts       glue           remaining
c 
c ]  0.96 173 656 0 123 3000 2585 10% 9 1045163 353005 98%
c {  0.96 173 125 0 123 3000 2585  8% 3 1045163 353005 98%
c F  0.96 173 125 0 125 3004 2589  8% 3 1045163 353005 98%
c i  0.99 173 132 0 134 3158 2729  9% 3 1045163 353004 98%
c i  1.02 173 133 0 152 3282 2846  9% 3 1045163 352701 98%
c i  1.03 173 130 0 156 3315 2876  9% 3 1045163 352370 98%
c i  1.06 173 126 0 172 3408 2962  9% 3 1045163 351432 97%
c i  1.07 173 120 0 187 3533 3080  9% 3 1045163 351424 97%
c i  1.07 173 120 0 188 3536 3082  9% 3 1045163 351415 97%
c i  1.10 173 115 0 219 3648 3188  8% 3 1045163 351405 97%
c i  1.30 173 96 0 385 4799 4259  8% 3 1045163 351403 97%
c i  1.31 173 97 0 385 4818 4275  8% 3 1045163 351402 97%
c i  1.57 174 102 0 469 5785 5152  9% 4 1045163 351386 97%
c #  1.63 174 102 0 491 6006 5349  9% 4 1045163 351386 97%
c i  1.70 174 97 0 565 6305 5603  9% 4 1045163 351377 97%
c i  1.76 174 96 0 588 6514 5790  9% 4 1045163 351362 97%
c i  1.76 174 96 0 590 6523 5796  9% 4 1045163 351350 97%
c }  1.90 174 93 0 674 7000 6235  9% 4 1045163 351350 97%
c [  1.90 174 656 0 674 7000 6235 10% 9 1045163 351350 97%
c i  2.32 175 3131 0 676 9222 8275 45% 10 1045163 350762 97%
c 
c  seconds     reductions   redundant   irredundant
c          MB      restarts        trail        variables
c            level     conflicts       glue           remaining
c 
c I  2.42 175 2647 0 676 10007 8994 39% 9 1045163 350762 97%
c i  2.81 176 1775 0 678 13096 11652 30% 8 1045163 350761 97%
c i  2.87 176 1642 0 679 13753 12196 28% 8 1045163 350760 97%
c ]  2.98 176 1471 0 679 15003 13349 27% 8 1045163 350760 97%
... skipped 83 lines ...
c i 18.51 227 37 0 7170 94910 69290  8% 7 985675 343421 95%
c i 19.00 227 37 0 7604 97241 71453  8% 7 985675 343420 95%
c i 19.23 227 36 0 7786 98648 72721  8% 7 985675 343419 95%
c i 19.30 227 36 0 7789 99202 73126  8% 7 985675 343407 95%
c i 19.47 227 36 0 7913 100145 73971  8% 7 985675 343406 95%
c i 19.54 227 35 0 7959 100647 74423  8% 7 985675 343403 95%
c i 19.59 227 35 0 7989 100909 74628  8% 7 985675 343390 95%
c i 19.60 227 35 0 7989 100925 74638  8% 7 985675 343386 95%
c 
c  seconds   reductions      redundant  irredundant
c          MB    restarts           trail       variables
c           level     conflicts         glue          remaining
c 
c i 19.60 227 35 0 7989 100926 74638  8% 7 985675 343383 95%
c i 19.64 227 35 0 8050 101484 74977  8% 7 985675 342934 95%
c i 19.88 227 35 0 8217 102673 76044  8% 7 985675 342932 95%
c i 19.95 227 34 0 8266 103102 76378  8% 7 985675 342920 95%
c B 20.33 227 34 0 8568 105028 78110  8% 7 985675 342920 95%
c i 20.79 227 33 0 8920 107505 80099  8% 7 985675 342508 95%
c i 21.21 227 32 0 9152 109516 81869  8% 7 985675 342498 95%
c i 21.22 227 32 0 9152 109588 81908  8% 7 985675 342476 95%
c i 21.23 227 32 0 9152 109628 81939  8% 7 985675 342429 95%
c i 21.29 227 32 0 9192 109955 82224  8% 7 985675 342413 95%
c i 21.36 227 32 0 9209 110577 82677  8% 7 985675 342062 95%
c i 21.38 227 32 0 9209 110727 82819  8% 7 985675 342061 95%
c i 21.45 227 32 0 9233 111192 83172  8% 7 985675 342036 95%
c i 21.49 227 32 0 9233 111448 83318  8% 7 985675 341946 95%
c i 21.57 227 32 0 9238 111988 83732  8% 7 985675 341916 95%
c i 21.58 227 31 0 9244 112148 83864  8% 7 985675 341915 95%
c i 21.60 227 31 0 9244 112249 83943  8% 7 985675 341914 95%
c i 21.61 227 31 0 9244 112320 83975  8% 7 985675 341667 95%
c i 21.62 227 31 0 9244 112370 83991  8% 7 985675 341660 95%
c i 21.62 227 31 0 9244 112414 84025  8% 7 985675 341659 95%
c 
c  seconds   reductions      redundant  irredundant
c          MB    restarts           trail       variables
c           level     conflicts         glue          remaining
c 
c i 21.62 227 31 0 9244 112428 84031  8% 7 985675 341469 95%
c i 21.62 227 31 0 9244 112432 84033  8% 7 985675 341375 95%
c i 21.62 227 31 0 9244 112433 84033  8% 7 985675 340992 95%
c i 21.62 227 31 0 9244 112440 84036  8% 7 985675 340972 95%
c i 21.62 227 31 0 9244 112441 84036  8% 7 985675 340224 94%
c i 21.62 227 31 0 9244 112442 84036  8% 7 985675 340119 94%
c } 21.63 227 31 0 9244 112453 84041  8% 7 985675 338332 94%
c 0 21.63 227 31 0 9244 112453 84041  8% 7 985675 338332 94%
c 
c --- [ result ] -------------------------------------------------------------
c 
s UNSATISFIABLE
c 
c --- [ run-time profiling ] -------------------------------------------------
c 
c process time taken by individual solving procedures
c (percentage relative to process time for solving)
c 
c        21.44  100.00% search
c        14.90   69.50% unstable
c         5.51   25.71% stable
c         0.94    4.40% walk
c         0.18    0.85% parse
c         0.08    0.39% lucky
c         0.00    0.00% simplify
c   =================================
c        21.44   99.16% solve
c 
c last line shows process time for solving
c (percentage relative to total process time)
c 
c --- [ statistics ] ---------------------------------------------------------
c 
c chronological:             34417        30.61 %  of conflicts
c conflicts:                112453      5243.91    per second
c decisions:                506720     23629.39    per second
c fixed:                     22337         6.19 %  of all variables
c learned:                  108576        96.55 %  per conflict
c learned_lits:            5009468       100.00 %  learned literals
c minimized:                     0         0.00 %  learned literals
c shrunken:                1042972        20.82 %  learned literals
c minishrunken:            1319432        26.34 %  learned literals
c otfs:                        440         0.39 %  of conflict
c propagations:          250784138        11.69 M  per second
c rephased:                     14      8032.36    interval
c restarts:                   9244        12.16    interval
c stabilizing:                   3        37.35 %  of conflicts
c subsumed:                   8911         0.77 %  of all clauses
c strengthened:                429         0.04 %  of all clauses
c walked:                        3     37484.33    interval
c 
c seconds are measured in process time for solving
c 
c --- [ resources ] ----------------------------------------------------------
c 
c total process time since initialization:        21.63    seconds
c total real time since initialization:           21.78    seconds
c maximum resident set size of process:          262.05    MB
c 
c --- [ shutting down ] ------------------------------------------------------
c 
c exit 20
